<number of tasks>
250

<cycle time>
1000

<order strength>
0.896


<task times>
1 49
2 161
3 409
4 130
5 553
6 138
7 236
8 104
9 345
10 207
11 57
12 195
13 74
14 155
15 57
16 165
17 132
18 563
19 266
20 443
21 205
22 178
23 576
24 265
25 398
26 227
27 22
28 447
29 161
30 456
31 231
32 257
33 218
34 149
35 94
36 218
37 251
38 81
39 215
40 490
41 46
42 36
43 581
44 533
45 136
46 153
47 337
48 281
49 105
50 44
51 251
52 38
53 78
54 239
55 168
56 306
57 104
58 115
59 182
60 118
61 244
62 119
63 85
64 346
65 70
66 135
67 316
68 269
69 47
70 164
71 30
72 163
73 131
74 28
75 104
76 341
77 535
78 571
79 51
80 459
81 470
82 105
83 175
84 42
85 141
86 446
87 403
88 51
89 271
90 277
91 37
92 190
93 62
94 229
95 153
96 408
97 23
98 445
99 222
100 279
101 107
102 144
103 412
104 33
105 106
106 245
107 454
108 194
109 336
110 162
111 217
112 432
113 165
114 34
115 184
116 248
117 105
118 463
119 310
120 291
121 558
122 522
123 135
124 203
125 263
126 296
127 202
128 162
129 154
130 152
131 543
132 547
133 382
134 188
135 54
136 563
137 165
138 113
139 88
140 114
141 102
142 220
143 85
144 64
145 52
146 231
147 366
148 217
149 421
150 185
151 292
152 310
153 246
154 55
155 95
156 261
157 597
158 94
159 157
160 502
161 45
162 152
163 505
164 246
165 198
166 367
167 118
168 161
169 80
170 227
171 270
172 265
173 70
174 333
175 28
176 204
177 214
178 402
179 77
180 112
181 112
182 389
183 156
184 55
185 24
186 442
187 78
188 57
189 259
190 76
191 188
192 129
193 159
194 178
195 85
196 526
197 520
198 237
199 196
200 326
201 440
202 85
203 231
204 286
205 298
206 424
207 515
208 222
209 403
210 222
211 40
212 597
213 73
214 416
215 133
216 492
217 508
218 257
219 285
220 178
221 155
222 246
223 433
224 103
225 166
226 309
227 291
228 245
229 160
230 35
231 191
232 248
233 143
234 173
235 181
236 298
237 559
238 498
239 137
240 62
241 173
242 135
243 67
244 113
245 144
246 364
247 226
248 165
249 283
250 107

<precedence relations>
1,10
1,13
2,8
2,10
2,11
2,12
2,13
3,8
3,9
3,10
3,11
4,8
4,12
4,13
5,8
5,9
5,10
5,11
5,12
5,13
6,8
6,9
6,10
6,11
6,12
6,13
7,8
7,9
7,10
7,11
7,12
7,13
8,14
8,15
8,16
8,17
8,18
8,19
9,14
9,15
9,16
9,17
9,18
9,19
10,14
10,15
10,16
10,17
10,18
10,19
11,14
11,15
11,16
11,17
11,18
11,19
12,14
12,15
12,16
12,17
12,18
12,19
13,14
13,15
13,16
13,17
13,18
13,19
14,20
14,21
14,22
14,23
15,20
15,21
15,22
15,23
16,20
16,21
16,22
16,23
17,20
17,21
17,22
17,23
18,20
18,21
18,22
18,23
19,20
19,21
19,22
19,23
20,24
20,25
20,26
21,24
21,25
21,26
22,24
22,25
22,26
23,24
23,25
23,26
24,27
24,28
24,29
24,30
24,31
25,27
25,28
25,29
25,30
25,31
26,27
26,28
26,29
26,30
26,31
27,32
27,33
28,32
28,33
29,32
29,33
30,32
30,33
31,32
31,33
32,34
32,35
33,34
33,35
34,36
34,37
35,36
35,37
36,38
36,39
36,40
37,38
37,39
37,40
38,41
38,42
38,43
38,44
38,45
39,41
39,42
39,43
39,44
39,45
40,41
40,42
40,43
40,44
40,45
41,46
41,47
41,48
41,49
42,46
42,47
42,48
42,49
43,46
43,47
43,48
43,49
44,46
44,47
44,48
44,49
45,46
45,47
45,48
45,49
46,50
46,51
46,52
46,53
46,54
47,50
47,51
47,52
47,53
47,54
48,50
48,51
48,52
48,53
48,54
49,50
49,51
49,52
49,53
49,54
50,55
50,56
50,57
51,55
52,57
53,55
53,56
53,57
54,55
54,56
54,57
55,58
55,59
55,60
55,61
56,58
56,59
57,58
57,59
57,60
57,61
58,62
58,63
58,67
59,63
60,63
60,64
60,65
60,66
60,67
61,62
61,63
61,64
61,65
61,66
61,67
62,68
62,69
63,68
63,69
64,70
64,117
64,130
65,90
66,112
67,68
67,69
68,70
68,71
68,72
68,73
69,70
69,71
69,72
69,73
70,171
70,172
71,77
71,87
71,90
71,91
71,93
72,74
72,75
72,76
72,77
72,78
73,74
73,76
74,79
74,81
75,82
75,111
75,114
76,79
76,80
76,88
77,82
78,137
79,83
79,86
80,83
80,84
80,85
80,86
81,83
81,84
81,87
81,88
82,124
83,89
84,89
84,90
84,91
84,93
85,89
85,90
85,96
86,89
86,90
86,91
86,92
86,93
87,89
87,92
87,94
88,134
88,170
89,99
89,108
90,95
90,102
91,95
91,96
91,97
92,95
92,96
92,98
93,95
93,97
94,96
94,97
94,100
95,103
95,109
96,101
96,102
97,101
98,195
99,102
99,109
100,101
100,102
100,108
101,104
101,105
101,106
101,107
101,109
102,104
102,105
102,106
103,104
103,105
103,106
103,107
103,108
104,121
104,123
105,110
105,111
105,112
105,114
106,110
106,111
106,112
106,113
106,114
107,110
107,111
107,112
107,113
107,114
108,110
108,114
109,110
109,114
110,115
110,116
110,117
110,118
111,115
111,116
111,117
111,118
112,115
112,116
112,118
113,119
114,118
114,131
114,143
115,119
115,120
115,121
115,123
116,119
116,121
116,122
117,119
117,123
117,124
118,148
119,137
120,148
121,125
121,126
121,141
122,125
122,126
122,129
122,130
123,125
123,126
123,127
124,128
125,134
125,149
125,159
126,133
126,135
127,132
128,131
129,131
130,131
130,132
130,133
131,136
131,139
131,140
132,136
132,138
132,147
132,151
133,136
133,137
134,154
135,137
136,155
137,142
137,143
138,199
138,212
139,141
139,147
139,148
140,141
140,142
141,144
141,145
142,144
142,145
142,154
143,144
143,146
143,147
143,148
144,149
144,151
144,155
145,149
145,150
145,152
145,153
146,149
146,150
146,151
146,152
146,155
147,149
148,149
148,150
148,154
148,161
149,156
149,157
150,158
150,169
150,192
151,156
151,157
152,159
153,160
153,178
153,197
154,157
155,156
155,158
156,163
157,160
157,164
158,160
159,160
159,161
159,162
160,176
160,180
161,165
162,165
163,165
164,166
165,169
165,170
165,176
165,180
166,167
166,168
166,169
166,171
166,172
167,174
169,187
170,173
170,174
170,175
171,173
171,174
171,175
171,176
172,173
172,174
172,175
172,177
173,178
173,179
173,209
174,181
175,197
176,179
177,178
177,179
177,180
177,197
177,209
178,212
178,240
179,184
179,202
180,195
181,182
181,183
181,185
182,187
183,186
183,188
183,189
184,187
184,219
185,195
185,201
186,190
187,191
187,205
188,190
188,192
189,194
190,195
190,197
190,210
191,193
191,196
192,194
192,197
193,212
194,198
194,199
194,200
195,198
195,211
195,219
196,201
196,214
197,214
197,218
197,222
197,223
198,229
199,203
199,205
200,201
200,202
200,204
201,208
202,207
202,211
203,206
203,209
203,221
204,238
205,206
205,230
206,210
206,238
207,210
207,212
207,213
207,217
208,211
209,222
209,249
210,214
210,247
211,215
211,217
211,220
212,214
212,229
213,216
213,218
213,229
213,244
214,228
215,221
215,223
216,241
217,222
218,219
218,220
219,239
220,224
220,242
221,225
221,226
221,228
222,227
224,231
224,240
225,229
225,230
226,232
226,249
227,232
227,233
229,233
229,237
230,235
230,236
230,246
232,234
234,246
234,250
235,238
237,239
238,240
238,242
238,244
239,241
239,243
240,250
241,246
241,248
242,247
243,245
243,249

<end>
